(set-info :status unknown)
(declare-const symbol_32 (_ BitVec 32))
(declare-const symbol_10 (_ BitVec 32))
(declare-const symbol_26 (_ BitVec 32))
(declare-const symbol_28 (_ BitVec 32))
(declare-const symbol_0 (_ BitVec 32))
(declare-const symbol_16 (_ BitVec 32))
(declare-const symbol_34 (_ BitVec 32))
(declare-const symbol_3 (_ BitVec 32))
(declare-const symbol_14 (_ BitVec 32))
(declare-const symbol_24 (_ BitVec 32))
(declare-const symbol_22 (_ BitVec 32))
(declare-const symbol_18 (_ BitVec 32))
(declare-const symbol_30 (_ BitVec 32))
(declare-const symbol_2 (_ BitVec 32))
(declare-const symbol_20 (_ BitVec 32))
(declare-const symbol_7 (_ BitVec 32))
(declare-const symbol_12 (_ BitVec 32))
(declare-const symbol_5 (_ BitVec 32))
(assert (not (not (= symbol_34 (_ bv7 32)))))
(assert (not (not (= symbol_32 (_ bv7 32)))))
(assert (not (not (= symbol_30 (_ bv7 32)))))
(assert (not (not (= symbol_28 (_ bv7 32)))))
(assert (not (not (= symbol_26 (_ bv7 32)))))
(assert (not (not (= symbol_24 (_ bv7 32)))))
(assert (not (not (= symbol_22 (_ bv7 32)))))
(assert (not (not (= symbol_20 (_ bv7 32)))))
(assert (not (not (= symbol_18 (_ bv7 32)))))
(assert (not (not (= symbol_16 (_ bv7 32)))))
(assert (not (not (= symbol_14 (_ bv7 32)))))
(assert (not (not (= symbol_12 (_ bv7 32)))))
(assert (not (not (= symbol_10 (_ bv7 32)))))
(assert (not (not (= symbol_7 (_ bv7 32)))))
(assert (not (not (= symbol_5 (_ bv7 32)))))
(assert (not (not (= symbol_3 (_ bv7 32)))))
(assert (not (not (= symbol_2 (_ bv7 32)))))
(assert (not (not (= symbol_0 (_ bv10 32)))))
(assert (not (= symbol_0 (_ bv7 32))))
(check-sat)